
--- Job Mindrum-Tyler-Project.gms Start 12/11/25 14:46:55 50.4.1 84b10359 WEX-WEI x86 64bit/MS Windows
--- Applying:
    C:\GAMS\50\gmsprmNT.txt
--- GAMS Parameters defined
    Input C:\Users\tytya\OneDrive\Documents\GitHub\CEE6410-Mindrum-Project\Mindrum-Tyler-Project.gms
    PageSize 0
    ScrDir C:\Users\tytya\OneDrive\Documents\GitHub\CEE6410-Mindrum-Project\225a\
    SysDir C:\GAMS\50\
    LogOption 3
    AppendLog 1
    ErrMsg 1
    ErrorLog 99
    IDE 1
    LstTitleLeftAligned 1
Licensee: Course License                                 G250902+0003Ac-GEN
          Utah State University                                     DCE4709
          225a\gamslice.dat
          node:22671403 mem:16 cores:4 ipport:64733 uses:0@0 v:2           
          Course license for use within the course and related course work
          The expiration date of time-limited license is Dec 31, 2025
System information: 4 physical cores and 16 Gb physical memory detected
GAMS 50.4.1   Copyright (C) 1987-2025 GAMS Development. All rights reserved
--- Starting compilation
--- Mindrum-Tyler-Project.gms(114) 3 Mb
--- Starting execution: elapsed 0:00:00.020
--- Mindrum-Tyler-Project.gms(70) 4 Mb
--- Generating MIP model pipelineRoute
--- Mindrum-Tyler-Project.gms(114) 4 Mb
---   47 rows  29 columns  100 non-zeroes
---   12 discrete-columns
--- Range statistics (absolute non-zero finite values)
--- RHS       [min, max] : [ 1.000E+00, 5.000E+02] - Zero values observed as well
--- Bound     [min, max] : [ 1.000E+00, 1.000E+00] - Zero values observed as well
--- Matrix    [min, max] : [ 1.000E+00, 1.000E+05]
--- Executing CPLEX (Solvelink=2): elapsed 0:00:00.028

IBM ILOG CPLEX   50.4.1 84b10359 Aug 28, 2025          WEI x86 64bit/MS Window

*** This solver runs with a community license.
--- GMO setup time: 0.00s
--- GMO memory 0.50 Mb (peak 0.50 Mb)
--- Dictionary memory 0.00 Mb
--- Cplex 22.1.2.0 link memory 0.00 Mb (peak 0.00 Mb)
--- Starting Cplex

Version identifier: 22.1.2.0 | 2024-11-25 | 0edbb82fd
CPXPARAM_Advance                                 0
CPXPARAM_MIP_Display                             4
CPXPARAM_MIP_Pool_Capacity                       0
CPXPARAM_MIP_Tolerances_AbsMIPGap                0
Generic callback                                 0x50
Tried aggregator 2 times.
MIP Presolve eliminated 24 rows and 9 columns.
MIP Presolve modified 16 coefficients.
Aggregator did 4 substitutions.
Reduced MIP has 18 rows, 16 columns, and 44 nonzeros.
Reduced MIP has 12 binaries, 0 generals, 0 SOSs, and 0 indicators.
Presolve time = 0.00 sec. (0.07 ticks)
Found incumbent of value 410.000000 after 0.00 sec. (0.08 ticks)
Probing time = 0.00 sec. (0.01 ticks)
Tried aggregator 1 time.
Detecting symmetries...
MIP Presolve eliminated 2 rows and 0 columns.
MIP Presolve added 4 rows and 0 columns.
MIP Presolve modified 8 coefficients.
Reduced MIP has 20 rows, 16 columns, and 46 nonzeros.
Reduced MIP has 12 binaries, 0 generals, 0 SOSs, and 0 indicators.
Presolve time = 0.00 sec. (0.04 ticks)
Probing time = 0.00 sec. (0.01 ticks)
Clique table members: 6.
MIP emphasis: balance optimality and feasibility.
MIP search method: dynamic search.
Parallel mode: deterministic, using up to 8 threads.
Parallel mode: deterministic, using up to 2 threads for parallel tasks at root LP.
Tried aggregator 1 time.
No LP presolve or aggregator reductions.
Presolve time = 0.00 sec. (0.01 ticks)

Iteration log . . .
Iteration:     1   Dual objective     =             0.000000
Root relaxation solution time = 0.00 sec. (0.04 ticks)

        Nodes                                         Cuts/
   Node  Left     Objective  IInf  Best Integer    Best Bound    ItCnt     Gap

*     0+    0                          410.0000        0.0000           100.00%
Found incumbent of value 410.000000 after 0.01 sec. (0.19 ticks)
      0     0       88.3333     9      410.0000       88.3333       17   78.46%
*     0+    0                          110.0000       88.3333            19.70%
Found incumbent of value 110.000000 after 0.01 sec. (0.24 ticks)
*     0     0      integral     0      105.0000      105.0000       20    0.00%
Elapsed time = 0.03 sec. (0.31 ticks, tree = 0.01 MB)
Found incumbent of value 105.000000 after 0.03 sec. (0.31 ticks)

Root node processing (before b&c):
  Real time             =    0.03 sec. (0.32 ticks)
Parallel b&c, 8 threads:
  Real time             =    0.00 sec. (0.00 ticks)
  Sync time (average)   =    0.00 sec.
  Wait time (average)   =    0.00 sec.
                          ------------
Total (root+branch&cut) =    0.03 sec. (0.32 ticks)

--- MIP status (101): integer optimal solution.
--- Cplex Time: 0.03sec (det. 0.32 ticks)

--- Returning a primal only solution to GAMS (marginals all set to NA).
--- Fixing integer variables and solving final LP...

Version identifier: 22.1.2.0 | 2024-11-25 | 0edbb82fd
CPXPARAM_Advance                                 2
CPXPARAM_MIP_Display                             4
CPXPARAM_MIP_Pool_Capacity                       0
CPXPARAM_MIP_Tolerances_AbsMIPGap                0
Tried aggregator 1 time.
LP Presolve eliminated 46 rows and 29 columns.
All rows and columns eliminated.
Presolve time = 0.00 sec. (0.02 ticks)

--- Fixed MIP status (1): optimal.
--- Cplex Time: 0.00sec (det. 0.03 ticks)


Proven optimal solution
MIP Solution:          105.000000    (20 iterations, 0 nodes)
Final Solve:           105.000000    (0 iterations)

Best possible:         105.000000
Absolute gap:            0.000000
Relative gap:            0.000000

--- Reading solution for model pipelineRoute
*** Status: Normal completion
--- Job Mindrum-Tyler-Project.gms Stop 12/11/25 14:46:55 elapsed 0:00:00.111
